certificates/rado_a12_c244_N29.cnf
c Rad2 upper bound instance: x1 + 12*x2 - x3 = 244, interval [1,29]
p cnf 29 138
1 9 21 0
-1 -9 -21 0
1 21 22 0
-1 -21 -22 0
2 10 21 0
-2 -10 -21 0
2 22 0
-2 -22 0
3 11 21 0
-3 -11 -21 0
3 22 23 0
-3 -22 -23 0
4 12 21 0
-4 -12 -21 0
4 22 24 0
-4 -22 -24 0
1 5 20 0
-1 -5 -20 0
5 13 21 0
-5 -13 -21 0
5 22 25 0
-5 -22 -25 0
2 6 20 0
-2 -6 -20 0
6 14 21 0
-6 -14 -21 0
6 22 26 0
-6 -22 -26 0
3 7 20 0
-3 -7 -20 0
7 15 21 0
-7 -15 -21 0
7 22 27 0
-7 -22 -27 0
4 8 20 0
-4 -8 -20 0
8 16 21 0
-8 -16 -21 0
8 22 28 0
-8 -22 -28 0
5 9 20 0
-5 -9 -20 0
9 17 21 0
-9 -17 -21 0
9 22 29 0
-9 -22 -29 0
6 10 20 0
-6 -10 -20 0
10 18 21 0
-10 -18 -21 0
7 11 20 0
-7 -11 -20 0
11 19 21 0
-11 -19 -21 0
8 12 20 0
-8 -12 -20 0
12 20 21 0
-12 -20 -21 0
9 13 20 0
-9 -13 -20 0
13 21 0
-13 -21 0
10 14 20 0
-10 -14 -20 0
14 21 22 0
-14 -21 -22 0
11 15 20 0
-11 -15 -20 0
15 21 23 0
-15 -21 -23 0
12 16 20 0
-12 -16 -20 0
16 21 24 0
-16 -21 -24 0
1 17 19 0
-1 -17 -19 0
13 17 20 0
-13 -17 -20 0
17 21 25 0
-17 -21 -25 0
2 18 19 0
-2 -18 -19 0
14 18 20 0
-14 -18 -20 0
18 21 26 0
-18 -21 -26 0
3 19 0
-3 -19 0
15 19 20 0
-15 -19 -20 0
19 21 27 0
-19 -21 -27 0
4 19 20 0
-4 -19 -20 0
16 20 0
-16 -20 0
20 21 28 0
-20 -21 -28 0
5 19 21 0
-5 -19 -21 0
17 20 21 0
-17 -20 -21 0
21 29 0
-21 -29 0
6 19 22 0
-6 -19 -22 0
18 20 22 0
-18 -20 -22 0
7 19 23 0
-7 -19 -23 0
19 20 23 0
-19 -20 -23 0
8 19 24 0
-8 -19 -24 0
20 24 0
-20 -24 0
9 19 25 0
-9 -19 -25 0
20 21 25 0
-20 -21 -25 0
10 19 26 0
-10 -19 -26 0
20 22 26 0
-20 -22 -26 0
11 19 27 0
-11 -19 -27 0
20 23 27 0
-20 -23 -27 0
12 19 28 0
-12 -19 -28 0
20 24 28 0
-20 -24 -28 0
1 18 29 0
-1 -18 -29 0
13 19 29 0
-13 -19 -29 0
20 25 29 0
-20 -25 -29 0
