certificates/rado_a12_c244_N29.drat
-25 -29 0
-29 0
21 0
-13 0
19 0
-3 0
-27 0
-11 0
-5 0
-20 -22 0
d -18 -20 -22 0
25 0
-9 0
-20 0
-17 0
0
